p cnf 1903
-24 -598
-25 -601
-26 -604
-27 -607
-28 -610
-29 -613
-30 -616
-31 -619
-32 -622
-33 -625
-34 -628
-35 -631
-36 -634
-37 -637
-38 -640
-39 -643
-40 -646
-41 -649
-42 -652
-43 -655
-44 -658
-45 -661
-46 -664
-47 665
-48 666
-49 667
-50 668
-51 669
-52 670
-53 671
-54 672
-55 673
-56 674
-57 675
-58 676
-59 677
-60 678
-61 679
-62 680
-63 681
-64 682
-65 683
-66 -25
-66 -26
25 26 66
-67 -27
-67 -28
27 28 67
-68 -29
-68 -30
29 30 68
-69 -31
-69 -32
31 32 69
-70 -33
-70 -34
33 34 70
-71 -35
-71 -36
35 36 71
-72 -37
-72 -38
37 38 72
-73 -39
-73 -40
39 40 73
-74 -41
-74 -42
41 42 74
-75 -43
-75 -44
43 44 75
-76 -45
-76 -46
45 46 76
-77 -47
-77 -48
47 48 77
-78 -49
-78 -50
49 50 78
-79 -51
-79 -52
51 52 79
-80 -53
-80 -54
53 54 80
-81 -55
-81 -56
55 56 81
-82 -57
-82 -58
57 58 82
-83 -59
-83 -60
59 60 83
-84 -61
-84 -62
61 62 84
-85 -63
-85 -64
63 64 85
-86 66
-86 67
-66 -67 86
-87 68
-87 69
-68 -69 87
-88 70
-88 71
-70 -71 88
-89 72
-89 73
-72 -73 89
-90 74
-90 75
-74 -75 90
-91 76
-91 77
-76 -77 91
-92 78
-92 79
-78 -79 92
-93 80
-93 81
-80 -81 93
-94 82
-94 83
-82 -83 94
-95 84
-95 85
-84 -85 95
-96 86
-96 87
-86 -87 96
-97 88
-97 89
-88 -89 97
-98 90
-98 91
-90 -91 98
-99 92
-99 93
-92 -93 99
-100 94
-100 95
-94 -95 100
-101 96
-101 97
-96 -97 101
-102 98
-102 99
-98 -99 102
-103 -65
-103 100
65 -100 103
-104 101
-104 102
-101 -102 104
-105 103
-105 104
-103 -104 105
-106 -24
-106 25
24 -25 106
-107 24
-107 -25
-24 25 107
-108 -106
-108 -107
106 107 108
-109 24
-109 25
-24 -25 109
-110 -24
-110 -108
24 108 110
-111 24
-111 108
-24 -108 111
-112 -110
-112 -111
110 111 112
-113 24
-113 -108
-24 108 113
-114 -109
-114 -113
109 113 114
-115 -25
-115 26
25 -26 115
-116 25
-116 -26
-25 26 116
-117 -115
-117 -116
115 116 117
-118 25
-118 26
-25 -26 118
-119 114
-119 -117
-114 117 119
-120 -114
-120 117
114 -117 120
-121 -119
-121 -120
119 120 121
-122 -114
-122 -117
114 117 122
-123 -118
-123 -122
118 122 123
-124 -26
-124 27
26 -27 124
-125 26
-125 -27
-26 27 125
-126 -124
-126 -125
124 125 126
-127 26
-127 27
-26 -27 127
-128 123
-128 -126
-123 126 128
-129 -123
-129 126
123 -126 129
-130 -128
-130 -129
128 129 130
-131 -123
-131 -126
123 126 131
-132 -127
-132 -131
127 131 132
-133 -27
-133 28
27 -28 133
-134 27
-134 -28
-27 28 134
-135 -133
-135 -134
133 134 135
-136 27
-136 28
-27 -28 136
-137 132
-137 -135
-132 135 137
-138 -132
-138 135
132 -135 138
-139 -137
-139 -138
137 138 139
-140 -132
-140 -135
132 135 140
-141 -136
-141 -140
136 140 141
-142 -28
-142 29
28 -29 142
-143 28
-143 -29
-28 29 143
-144 -142
-144 -143
142 143 144
-145 28
-145 29
-28 -29 145
-146 141
-146 -144
-141 144 146
-147 -141
-147 144
141 -144 147
-148 -146
-148 -147
146 147 148
-149 -141
-149 -144
141 144 149
-150 -145
-150 -149
145 149 150
-151 -29
-151 30
29 -30 151
-152 29
-152 -30
-29 30 152
-153 -151
-153 -152
151 152 153
-154 29
-154 30
-29 -30 154
-155 150
-155 -153
-150 153 155
-156 -150
-156 153
150 -153 156
-157 -155
-157 -156
155 156 157
-158 -150
-158 -153
150 153 158
-159 -154
-159 -158
154 158 159
-160 -30
-160 31
30 -31 160
-161 30
-161 -31
-30 31 161
-162 -160
-162 -161
160 161 162
-163 30
-163 31
-30 -31 163
-164 159
-164 -162
-159 162 164
-165 -159
-165 162
159 -162 165
-166 -164
-166 -165
164 165 166
-167 -159
-167 -162
159 162 167
-168 -163
-168 -167
163 167 168
-169 -31
-169 32
31 -32 169
-170 31
-170 -32
-31 32 170
-171 -169
-171 -170
169 170 171
-172 31
-172 32
-31 -32 172
-173 168
-173 -171
-168 171 173
-174 -168
-174 171
168 -171 174
-175 -173
-175 -174
173 174 175
-176 -168
-176 -171
168 171 176
-177 -172
-177 -176
172 176 177
-178 -32
-178 33
32 -33 178
-179 32
-179 -33
-32 33 179
-180 -178
-180 -179
178 179 180
-181 32
-181 33
-32 -33 181
-182 177
-182 -180
-177 180 182
-183 -177
-183 180
177 -180 183
-184 -182
-184 -183
182 183 184
-185 -177
-185 -180
177 180 185
-186 -181
-186 -185
181 185 186
-187 -33
-187 34
33 -34 187
-188 33
-188 -34
-33 34 188
-189 -187
-189 -188
187 188 189
-190 33
-190 34
-33 -34 190
-191 186
-191 -189
-186 189 191
-192 -186
-192 189
186 -189 192
-193 -191
-193 -192
191 192 193
-194 -186
-194 -189
186 189 194
-195 -190
-195 -194
190 194 195
-196 -34
-196 35
34 -35 196
-197 34
-197 -35
-34 35 197
-198 -196
-198 -197
196 197 198
-199 34
-199 35
-34 -35 199
-200 195
-200 -198
-195 198 200
-201 -195
-201 198
195 -198 201
-202 -200
-202 -201
200 201 202
-203 -195
-203 -198
195 198 203
-204 -199
-204 -203
199 203 204
-205 -35
-205 36
35 -36 205
-206 35
-206 -36
-35 36 206
-207 -205
-207 -206
205 206 207
-208 35
-208 36
-35 -36 208
-209 204
-209 -207
-204 207 209
-210 -204
-210 207
204 -207 210
-211 -209
-211 -210
209 210 211
-212 -204
-212 -207
204 207 212
-213 -208
-213 -212
208 212 213
-214 -36
-214 37
36 -37 214
-215 36
-215 -37
-36 37 215
-216 -214
-216 -215
214 215 216
-217 36
-217 37
-36 -37 217
-218 213
-218 -216
-213 216 218
-219 -213
-219 216
213 -216 219
-220 -218
-220 -219
218 219 220
-221 -213
-221 -216
213 216 221
-222 -217
-222 -221
217 221 222
-223 -37
-223 38
37 -38 223
-224 37
-224 -38
-37 38 224
-225 -223
-225 -224
223 224 225
-226 37
-226 38
-37 -38 226
-227 222
-227 -225
-222 225 227
-228 -222
-228 225
222 -225 228
-229 -227
-229 -228
227 228 229
-230 -222
-230 -225
222 225 230
-231 -226
-231 -230
226 230 231
-232 -38
-232 39
38 -39 232
-233 38
-233 -39
-38 39 233
-234 -232
-234 -233
232 233 234
-235 38
-235 39
-38 -39 235
-236 231
-236 -234
-231 234 236
-237 -231
-237 234
231 -234 237
-238 -236
-238 -237
236 237 238
-239 -231
-239 -234
231 234 239
-240 -235
-240 -239
235 239 240
-241 -39
-241 40
39 -40 241
-242 39
-242 -40
-39 40 242
-243 -241
-243 -242
241 242 243
-244 39
-244 40
-39 -40 244
-245 240
-245 -243
-240 243 245
-246 -240
-246 243
240 -243 246
-247 -245
-247 -246
245 246 247
-248 -240
-248 -243
240 243 248
-249 -244
-249 -248
244 248 249
-250 -40
-250 41
40 -41 250
-251 40
-251 -41
-40 41 251
-252 -250
-252 -251
250 251 252
-253 40
-253 41
-40 -41 253
-254 249
-254 -252
-249 252 254
-255 -249
-255 252
249 -252 255
-256 -254
-256 -255
254 255 256
-257 -249
-257 -252
249 252 257
-258 -253
-258 -257
253 257 258
-259 -41
-259 42
41 -42 259
-260 41
-260 -42
-41 42 260
-261 -259
-261 -260
259 260 261
-262 41
-262 42
-41 -42 262
-263 258
-263 -261
-258 261 263
-264 -258
-264 261
258 -261 264
-265 -263
-265 -264
263 264 265
-266 -258
-266 -261
258 261 266
-267 -262
-267 -266
262 266 267
-268 -42
-268 43
42 -43 268
-269 42
-269 -43
-42 43 269
-270 -268
-270 -269
268 269 270
-271 42
-271 43
-42 -43 271
-272 267
-272 -270
-267 270 272
-273 -267
-273 270
267 -270 273
-274 -272
-274 -273
272 273 274
-275 -267
-275 -270
267 270 275
-276 -271
-276 -275
271 275 276
-277 -43
-277 44
43 -44 277
-278 43
-278 -44
-43 44 278
-279 -277
-279 -278
277 278 279
-280 43
-280 44
-43 -44 280
-281 276
-281 -279
-276 279 281
-282 -276
-282 279
276 -279 282
-283 -281
-283 -282
281 282 283
-284 -276
-284 -279
276 279 284
-285 -280
-285 -284
280 284 285
-286 -44
-286 45
44 -45 286
-287 44
-287 -45
-44 45 287
-288 -286
-288 -287
286 287 288
-289 44
-289 45
-44 -45 289
-290 285
-290 -288
-285 288 290
-291 -285
-291 288
285 -288 291
-292 -290
-292 -291
290 291 292
-293 -285
-293 -288
285 288 293
-294 -289
-294 -293
289 293 294
-295 -45
-295 46
45 -46 295
-296 45
-296 -46
-45 46 296
-297 -295
-297 -296
295 296 297
-298 45
-298 46
-45 -46 298
-299 294
-299 -297
-294 297 299
-300 -294
-300 297
294 -297 300
-301 -299
-301 -300
299 300 301
-302 -294
-302 -297
294 297 302
-303 -298
-303 -302
298 302 303
-304 -46
-304 47
46 -47 304
-305 46
-305 -47
-46 47 305
-306 -304
-306 -305
304 305 306
-307 46
-307 47
-46 -47 307
-308 303
-308 -306
-303 306 308
-309 -303
-309 306
303 -306 309
-310 -308
-310 -309
308 309 310
-311 -303
-311 -306
303 306 311
-312 -307
-312 -311
307 311 312
-313 -47
-313 48
47 -48 313
-314 47
-314 -48
-47 48 314
-315 -313
-315 -314
313 314 315
-316 47
-316 48
-47 -48 316
-317 312
-317 -315
-312 315 317
-318 -312
-318 315
312 -315 318
-319 -317
-319 -318
317 318 319
-320 -312
-320 -315
312 315 320
-321 -316
-321 -320
316 320 321
-322 -48
-322 49
48 -49 322
-323 48
-323 -49
-48 49 323
-324 -322
-324 -323
322 323 324
-325 48
-325 49
-48 -49 325
-326 321
-326 -324
-321 324 326
-327 -321
-327 324
321 -324 327
-328 -326
-328 -327
326 327 328
-329 -321
-329 -324
321 324 329
-330 -325
-330 -329
325 329 330
-331 -49
-331 50
49 -50 331
-332 49
-332 -50
-49 50 332
-333 -331
-333 -332
331 332 333
-334 49
-334 50
-49 -50 334
-335 330
-335 -333
-330 333 335
-336 -330
-336 333
330 -333 336
-337 -335
-337 -336
335 336 337
-338 -330
-338 -333
330 333 338
-339 -334
-339 -338
334 338 339
-340 -50
-340 51
50 -51 340
-341 50
-341 -51
-50 51 341
-342 -340
-342 -341
340 341 342
-343 50
-343 51
-50 -51 343
-344 339
-344 -342
-339 342 344
-345 -339
-345 342
339 -342 345
-346 -344
-346 -345
344 345 346
-347 -339
-347 -342
339 342 347
-348 -343
-348 -347
343 347 348
-349 -51
-349 52
51 -52 349
-350 51
-350 -52
-51 52 350
-351 -349
-351 -350
349 350 351
-352 51
-352 52
-51 -52 352
-353 348
-353 -351
-348 351 353
-354 -348
-354 351
348 -351 354
-355 -353
-355 -354
353 354 355
-356 -348
-356 -351
348 351 356
-357 -352
-357 -356
352 356 357
-358 -52
-358 53
52 -53 358
-359 52
-359 -53
-52 53 359
-360 -358
-360 -359
358 359 360
-361 52
-361 53
-52 -53 361
-362 357
-362 -360
-357 360 362
-363 -357
-363 360
357 -360 363
-364 -362
-364 -363
362 363 364
-365 -357
-365 -360
357 360 365
-366 -361
-366 -365
361 365 366
-367 -53
-367 54
53 -54 367
-368 53
-368 -54
-53 54 368
-369 -367
-369 -368
367 368 369
-370 53
-370 54
-53 -54 370
-371 366
-371 -369
-366 369 371
-372 -366
-372 369
366 -369 372
-373 -371
-373 -372
371 372 373
-374 -366
-374 -369
366 369 374
-375 -370
-375 -374
370 374 375
-376 -54
-376 55
54 -55 376
-377 54
-377 -55
-54 55 377
-378 -376
-378 -377
376 377 378
-379 54
-379 55
-54 -55 379
-380 375
-380 -378
-375 378 380
-381 -375
-381 378
375 -378 381
-382 -380
-382 -381
380 381 382
-383 -375
-383 -378
375 378 383
-384 -379
-384 -383
379 383 384
-385 -55
-385 56
55 -56 385
-386 55
-386 -56
-55 56 386
-387 -385
-387 -386
385 386 387
-388 55
-388 56
-55 -56 388
-389 384
-389 -387
-384 387 389
-390 -384
-390 387
384 -387 390
-391 -389
-391 -390
389 390 391
-392 -384
-392 -387
384 387 392
-393 -388
-393 -392
388 392 393
-394 -56
-394 57
56 -57 394
-395 56
-395 -57
-56 57 395
-396 -394
-396 -395
394 395 396
-397 56
-397 57
-56 -57 397
-398 393
-398 -396
-393 396 398
-399 -393
-399 396
393 -396 399
-400 -398
-400 -399
398 399 400
-401 -393
-401 -396
393 396 401
-402 -397
-402 -401
397 401 402
-403 -57
-403 58
57 -58 403
-404 57
-404 -58
-57 58 404
-405 -403
-405 -404
403 404 405
-406 57
-406 58
-57 -58 406
-407 402
-407 -405
-402 405 407
-408 -402
-408 405
402 -405 408
-409 -407
-409 -408
407 408 409
-410 -402
-410 -405
402 405 410
-411 -406
-411 -410
406 410 411
-412 -58
-412 59
58 -59 412
-413 58
-413 -59
-58 59 413
-414 -412
-414 -413
412 413 414
-415 58
-415 59
-58 -59 415
-416 411
-416 -414
-411 414 416
-417 -411
-417 414
411 -414 417
-418 -416
-418 -417
416 417 418
-419 -411
-419 -414
411 414 419
-420 -415
-420 -419
415 419 420
-421 -59
-421 60
59 -60 421
-422 59
-422 -60
-59 60 422
-423 -421
-423 -422
421 422 423
-424 59
-424 60
-59 -60 424
-425 420
-425 -423
-420 423 425
-426 -420
-426 423
420 -423 426
-427 -425
-427 -426
425 426 427
-428 -420
-428 -423
420 423 428
-429 -424
-429 -428
424 428 429
-430 -60
-430 61
60 -61 430
-431 60
-431 -61
-60 61 431
-432 -430
-432 -431
430 431 432
-433 60
-433 61
-60 -61 433
-434 429
-434 -432
-429 432 434
-435 -429
-435 432
429 -432 435
-436 -434
-436 -435
434 435 436
-437 -429
-437 -432
429 432 437
-438 -433
-438 -437
433 437 438
-439 -61
-439 62
61 -62 439
-440 61
-440 -62
-61 62 440
-441 -439
-441 -440
439 440 441
-442 61
-442 62
-61 -62 442
-443 438
-443 -441
-438 441 443
-444 -438
-444 441
438 -441 444
-445 -443
-445 -444
443 444 445
-446 -438
-446 -441
438 441 446
-447 -442
-447 -446
442 446 447
-448 -62
-448 63
62 -63 448
-449 62
-449 -63
-62 63 449
-450 -448
-450 -449
448 449 450
-451 62
-451 63
-62 -63 451
-452 447
-452 -450
-447 450 452
-453 -447
-453 450
447 -450 453
-454 -452
-454 -453
452 453 454
-455 -447
-455 -450
447 450 455
-456 -451
-456 -455
451 455 456
-457 -63
-457 64
63 -64 457
-458 63
-458 -64
-63 64 458
-459 -457
-459 -458
457 458 459
-460 63
-460 64
-63 -64 460
-461 456
-461 -459
-456 459 461
-462 -456
-462 459
456 -459 462
-463 -461
-463 -462
461 462 463
-464 -456
-464 -459
456 459 464
-465 -460
-465 -464
460 464 465
-466 -64
-466 65
64 -65 466
-467 64
-467 -65
-64 65 467
-468 -466
-468 -467
466 467 468
-469 64
-469 65
-64 -65 469
-470 465
-470 -468
-465 468 470
-471 -465
-471 468
465 -468 471
-472 -470
-472 -471
470 471 472
-473 -465
-473 -468
465 468 473
-474 -469
-474 -473
469 473 474
-475 24
-475 -112
-24 112 475
-476 -24
-476 26
24 -26 476
-477 -475
-477 -476
475 476 477
-478 24
-478 -121
-24 121 478
-479 -24
-479 27
24 -27 479
-480 -478
-480 -479
478 479 480
-481 24
-481 -130
-24 130 481
-482 -24
-482 28
24 -28 482
-483 -481
-483 -482
481 482 483
-484 24
-484 -139
-24 139 484
-485 -24
-485 29
24 -29 485
-486 -484
-486 -485
484 485 486
-487 24
-487 -148
-24 148 487
-488 -24
-488 30
24 -30 488
-489 -487
-489 -488
487 488 489
-490 24
-490 -157
-24 157 490
-491 -24
-491 31
24 -31 491
-492 -490
-492 -491
490 491 492
-493 24
-493 -166
-24 166 493
-494 -24
-494 32
24 -32 494
-495 -493
-495 -494
493 494 495
-496 24
-496 -175
-24 175 496
-497 -24
-497 33
24 -33 497
-498 -496
-498 -497
496 497 498
-499 24
-499 -184
-24 184 499
-500 -24
-500 34
24 -34 500
-501 -499
-501 -500
499 500 501
-502 24
-502 -193
-24 193 502
-503 -24
-503 35
24 -35 503
-504 -502
-504 -503
502 503 504
-505 24
-505 -202
-24 202 505
-506 -24
-506 36
24 -36 506
-507 -505
-507 -506
505 506 507
-508 24
-508 -211
-24 211 508
-509 -24
-509 37
24 -37 509
-510 -508
-510 -509
508 509 510
-511 24
-511 -220
-24 220 511
-512 -24
-512 38
24 -38 512
-513 -511
-513 -512
511 512 513
-514 24
-514 -229
-24 229 514
-515 -24
-515 39
24 -39 515
-516 -514
-516 -515
514 515 516
-517 24
-517 -238
-24 238 517
-518 -24
-518 40
24 -40 518
-519 -517
-519 -518
517 518 519
-520 24
-520 -247
-24 247 520
-521 -24
-521 41
24 -41 521
-522 -520
-522 -521
520 521 522
-523 24
-523 -256
-24 256 523
-524 -24
-524 42
24 -42 524
-525 -523
-525 -524
523 524 525
-526 24
-526 -265
-24 265 526
-527 -24
-527 43
24 -43 527
-528 -526
-528 -527
526 527 528
-529 24
-529 -274
-24 274 529
-530 -24
-530 44
24 -44 530
-531 -529
-531 -530
529 530 531
-532 24
-532 -283
-24 283 532
-533 -24
-533 45
24 -45 533
-534 -532
-534 -533
532 533 534
-535 24
-535 -292
-24 292 535
-536 -24
-536 46
24 -46 536
-537 -535
-537 -536
535 536 537
-538 24
-538 -301
-24 301 538
-539 -24
-539 47
24 -47 539
-540 -538
-540 -539
538 539 540
-541 24
-541 -310
-24 310 541
-542 -24
-542 48
24 -48 542
-543 -541
-543 -542
541 542 543
-544 24
-544 -319
-24 319 544
-545 -24
-545 49
24 -49 545
-546 -544
-546 -545
544 545 546
-547 24
-547 -328
-24 328 547
-548 -24
-548 50
24 -50 548
-549 -547
-549 -548
547 548 549
-550 24
-550 -337
-24 337 550
-551 -24
-551 51
24 -51 551
-552 -550
-552 -551
550 551 552
-553 24
-553 -346
-24 346 553
-554 -24
-554 52
24 -52 554
-555 -553
-555 -554
553 554 555
-556 24
-556 -355
-24 355 556
-557 -24
-557 53
24 -53 557
-558 -556
-558 -557
556 557 558
-559 24
-559 -364
-24 364 559
-560 -24
-560 54
24 -54 560
-561 -559
-561 -560
559 560 561
-562 24
-562 -373
-24 373 562
-563 -24
-563 55
24 -55 563
-564 -562
-564 -563
562 563 564
-565 24
-565 -382
-24 382 565
-566 -24
-566 56
24 -56 566
-567 -565
-567 -566
565 566 567
-568 24
-568 -391
-24 391 568
-569 -24
-569 57
24 -57 569
-570 -568
-570 -569
568 569 570
-571 24
-571 -400
-24 400 571
-572 -24
-572 58
24 -58 572
-573 -571
-573 -572
571 572 573
-574 24
-574 -409
-24 409 574
-575 -24
-575 59
24 -59 575
-576 -574
-576 -575
574 575 576
-577 24
-577 -418
-24 418 577
-578 -24
-578 60
24 -60 578
-579 -577
-579 -578
577 578 579
-580 24
-580 -427
-24 427 580
-581 -24
-581 61
24 -61 581
-582 -580
-582 -581
580 581 582
-583 24
-583 -436
-24 436 583
-584 -24
-584 62
24 -62 584
-585 -583
-585 -584
583 584 585
-586 24
-586 -445
-24 445 586
-587 -24
-587 63
24 -63 587
-588 -586
-588 -587
586 587 588
-589 24
-589 -454
-24 454 589
-590 -24
-590 64
24 -64 590
-591 -589
-591 -590
589 590 591
-592 24
-592 -463
-24 463 592
-593 -24
-593 65
24 -65 593
-594 -592
-594 -593
592 593 594
-595 24
-595 -472
-24 472 595
-596 1
-596 105
-1 -105 596
-597 -105
-597 106
105 -106 597
-598 -596
-598 -597
596 597 598
-599 2
-599 105
-2 -105 599
-600 -105
-600 -477
105 477 600
-601 -599
-601 -600
599 600 601
-602 3
-602 105
-3 -105 602
-603 -105
-603 -480
105 480 603
-604 -602
-604 -603
602 603 604
-605 4
-605 105
-4 -105 605
-606 -105
-606 -483
105 483 606
-607 -605
-607 -606
605 606 607
-608 5
-608 105
-5 -105 608
-609 -105
-609 -486
105 486 609
-610 -608
-610 -609
608 609 610
-611 6
-611 105
-6 -105 611
-612 -105
-612 -489
105 489 612
-613 -611
-613 -612
611 612 613
-614 7
-614 105
-7 -105 614
-615 -105
-615 -492
105 492 615
-616 -614
-616 -615
614 615 616
-617 8
-617 105
-8 -105 617
-618 -105
-618 -495
105 495 618
-619 -617
-619 -618
617 618 619
-620 9
-620 105
-9 -105 620
-621 -105
-621 -498
105 498 621
-622 -620
-622 -621
620 621 622
-623 10
-623 105
-10 -105 623
-624 -105
-624 -501
105 501 624
-625 -623
-625 -624
623 624 625
-626 11
-626 105
-11 -105 626
-627 -105
-627 -504
105 504 627
-628 -626
-628 -627
626 627 628
-629 12
-629 105
-12 -105 629
-630 -105
-630 -507
105 507 630
-631 -629
-631 -630
629 630 631
-632 13
-632 105
-13 -105 632
-633 -105
-633 -510
105 510 633
-634 -632
-634 -633
632 633 634
-635 14
-635 105
-14 -105 635
-636 -105
-636 -513
105 513 636
-637 -635
-637 -636
635 636 637
-638 15
-638 105
-15 -105 638
-639 -105
-639 -516
105 516 639
-640 -638
-640 -639
638 639 640
-641 16
-641 105
-16 -105 641
-642 -105
-642 -519
105 519 642
-643 -641
-643 -642
641 642 643
-644 17
-644 105
-17 -105 644
-645 -105
-645 -522
105 522 645
-646 -644
-646 -645
644 645 646
-647 18
-647 105
-18 -105 647
-648 -105
-648 -525
105 525 648
-649 -647
-649 -648
647 648 649
-650 19
-650 105
-19 -105 650
-651 -105
-651 -528
105 528 651
-652 -650
-652 -651
650 651 652
-653 20
-653 105
-20 -105 653
-654 -105
-654 -531
105 531 654
-655 -653
-655 -654
653 654 655
-656 21
-656 105
-21 -105 656
-657 -105
-657 -534
105 534 657
-658 -656
-658 -657
656 657 658
-659 22
-659 105
-22 -105 659
-660 -105
-660 -537
105 537 660
-661 -659
-661 -660
659 660 661
-662 23
-662 105
-23 -105 662
-663 -105
-663 -540
105 540 663
-664 -662
-664 -663
662 663 664
-665 -105
-665 -543
105 543 665
-666 -105
-666 -546
105 546 666
-667 -105
-667 -549
105 549 667
-668 -105
-668 -552
105 552 668
-669 -105
-669 -555
105 555 669
-670 -105
-670 -558
105 558 670
-671 -105
-671 -561
105 561 671
-672 -105
-672 -564
105 564 672
-673 -105
-673 -567
105 567 673
-674 -105
-674 -570
105 570 674
-675 -105
-675 -573
105 573 675
-676 -105
-676 -576
105 576 676
-677 -105
-677 -579
105 579 677
-678 -105
-678 -582
105 582 678
-679 -105
-679 -585
105 585 679
-680 -105
-680 -588
105 588 680
-681 -105
-681 -591
105 591 681
-682 -105
-682 -594
105 594 682
-683 -105
-683 595
105 -595 683
-684 -65
-684 474
65 -474 684
-685 24
-685 -684
-24 684 685
685
